14812
1 1 1 0 0 1 1 0 1 1 
8 6 6 0 9 9 5 5 6 2 6 0 9 2 6 9 6 5 5 6 0 2 2 6 6 0 5 0 6 8 5 2 6 6 6 2 9 6 0 0 6 6 6 2 2 1 5 5 2 8 6 5 0 2 0 0 6 0 1 5 2 5 6 6 6 2 6 8 5 8 6 0 6 6 6 8 8 6 2 6 2 5 2 2 9 2 1 5 5 6 9 1 2 5 1 1 1 1 1 2 